NAME : 20-5-1b-i.15959.tour
COMMENT : Length = 15959
COMMENT : Found by LKH-3 [Keld Helsgaun] Tue Dec 17 14:06:59 2024
TYPE : TOUR
DIMENSION : 30
TOUR_SECTION
1
26
2
27
3
22
6
23
11
7
14
17
18
10
19
16
9
15
21
20
12
25
28
4
29
5
8
13
24
30
-1
EOF
